163
100000
21033
29653
1137
10299
16927
65503
21046
49042
34789
7166
39071
27802
47995
6955
5440
5613
21801
17461
40191
18087
14461
1519
33766
46821
41572
15060
44924
31587
27258
57055
11580
19919
11111
21131
3284
14589
6646
16011
31203
31431
13885
1104
28883
55139
20301
27721
1189
1209
35692
33042
8004
47210
12518
8255
24585
9488
58428
1906
43850
36510
63629
46682
5709
16003
51506
11589
19125
40205
300
23789
6876
51354
41680
44344
44700
12835
70802
19271
12519
6843
56150
520
21884
9672
27747
21284
10880
53318
9005
9838
1284
30636
17147
60929
30672
22908
47054
16198
41331
48309
17059
27325
16046
48588
50201
506
43271
48885
58050
34425
29523
24189
3990
22352
14072
25199
41565
32068
12220
17659
17740
72927
40514
17349
32071
2836
44308
23907
16402
27259
13272
41059
36768
11010
9327
54491
31687
8342
11142
19218
11474
40718
29946
70989
1490
13960
55496
53133
65408
60738
7104
788
30188
68569
26241
30
52751
54801
69202
68116
28443
21549
6659
